Problem:    
Rows:       34
Columns:    19
Non-zeros:  102
Status:     OPTIMAL
Objective:  OBJ = 8663.818023 (MINimum)

   No.   Row name   St   Activity     Lower bound   Upper bound    Marginal
------ ------------ -- ------------- ------------- ------------- -------------
     1 _C1          NU        -327.4                      -327.4      -0.83314 
     2 _C10         NU          92.5                        92.5            -1 
     3 _C11         NU        -926.7                      -926.7            -1 
     4 _C12         B        883.867                       926.7 
     5 _C13         NU       -2186.3                     -2186.3            -1 
     6 _C14         B        289.709                      2186.3 
     7 _C15         B       -155.233                       -96.8 
     8 _C16         NU          96.8                        96.8            -1 
     9 _C17         B       -1312.93                      -523.9 
    10 _C18         NU         523.9                       523.9            -1 
    11 _C19         B       -2833.05                      -935.9 
    12 _C2          NU         327.4                       327.4      -0.16686 
    13 _C20         NU         935.9                       935.9            -1 
    14 _C21         NU        -444.2                      -444.2            -1 
    15 _C22         B        146.391                       444.2 
    16 _C23         B       -155.681                      -119.7 
    17 _C24         NU         119.7                       119.7            -1 
    18 _C25         B       -987.437                      -300.7 
    19 _C26         NU         300.7                       300.7            -1 
    20 _C27         NU        -201.9                      -201.9      -0.66686 
    21 _C28         NU         201.9                       201.9      -0.33314 
    22 _C29         NU        -194.7                      -194.7            -1 
    23 _C3          B       -195.114                      -179.5 
    24 _C30         B        156.565                       194.7 
    25 _C31         NU       -1592.9                     -1592.9            -1 
    26 _C32         B        241.016                      1592.9 
    27 _C33         NU       -5142.2                     -5142.2            -1 
    28 _C34         B       -4838.51                      5142.2 
    29 _C4          NU         179.5                       179.5            -1 
    30 _C5          NU        -279.4                      -279.4            -1 
    31 _C6          B        174.016                       279.4 
    32 _C7          B        -159.63                      -139.1 
    33 _C8          NU         139.1                       139.1            -1 
    34 _C9          B       -203.312                       -92.5 

   No. Column name  St   Activity     Lower bound   Upper bound    Marginal
------ ------------ -- ------------- ------------- ------------- -------------
     1 z_1          B              0                             
     2 z_10         B        948.576                             
     3 z_11         B        148.905                             
     4 z_12         B        17.9907                             
     5 z_13         B        343.369                             
     6 z_14         B              0                             
     7 z_15         B        19.0674                             
     8 z_16         B        675.942                             
     9 z_17         B        4990.35                             
    10 z_2          B        7.80698                             
    11 z_3          B        52.6919                             
    12 z_4          B        10.2651                             
    13 z_5          B        55.4058                             
    14 z_6          B        21.4163                             
    15 z_7          B        948.295                             
    16 z_8          B        29.2163                             
    17 z_9          B        394.517                             
    18 a            B        74.9407                             
    19 b            B         14.593                             

Karush-Kuhn-Tucker optimality conditions:

KKT.PE: max.abs.err = 2.27e-13 on row 3
        max.rel.err = 1.23e-16 on row 3
        High quality

KKT.PB: max.abs.err = 0.00e+00 on row 0
        max.rel.err = 0.00e+00 on row 0
        High quality

KKT.DE: max.abs.err = 3.77e-15 on column 11
        max.rel.err = 1.26e-15 on column 11
        High quality

KKT.DB: max.abs.err = 0.00e+00 on row 0
        max.rel.err = 0.00e+00 on row 0
        High quality

End of output
